\ENCODING=ISO-8859-1
\Problem name: IloCplex

Minimize
 obj: x1 + 59.955 x2 + 14.455 x3 + 2.45500000000001 x4 + 49.455 x5 + 16.455 x6
      - 51.545 x7 - 6.54499999999999 x8 + 30.455 x9 - 7.04499999999999 x10
      + 42.455 x11 + 19.455 x12 + 26.955 x13 + 6.45500000000001 x14
      - 39.545 x15 - 22.545 x16 - 59.545 x17 - 49.545 x18 - 21.545 x19
      + 8.45500000000001 x20 - 24.045 x21 - 7.04499999999999 x22 - 45.045 x23
      + 12.455 x24 - 35.045 x25 - 38.045 x26 + 12.455 x27 + 14.955 x28
      + 22.955 x29 - 58.045 x30 - 9.04499999999999 x31 - 18.545 x32
      + 23.955 x33 + 42.455 x34 - 7.54499999999999 x35 - 33.045 x36
      + 3.45500000000001 x37 - 44.045 x38 + 10.955 x39 + 18.455 x40
      + 40.455 x41 - 31.545 x42 - 24.045 x43 + 3.95500000000001 x44
      - 43.045 x45 - 60.545 x46 + 23.955 x47 + 4.45500000000001 x48
      + 13.455 x49 + 1.95500000000001 x50 + 24.955 x51 - 13.045 x52
      + 38.455 x53 + 16.955 x54 - 18.545 x55 + 60.455 x56
      - 2.04499999999999 x57 + 15.955 x58 + 10.955 x59 + 8.95500000000001 x60
      + 26.455 x61 - 6.54499999999999 x62 + 11.955 x63 + 3.95500000000001 x64
      - 0.0449999999999875 x65 + 3.95500000000001 x66 - 30.545 x67 + 10.455 x68
      + 3.45500000000001 x69 + 30.455 x70 + 44.455 x71 - 16.045 x72
      - 19.045 x73 + 32.955 x74 + 1.45500000000001 x75 + 22.955 x76
      + 13.955 x77 - 11.545 x78 + 33.955 x79 - 3.04499999999999 x80
      - 20.545 x81 - 4.54499999999999 x82 - 4.04499999999999 x83
      - 8.54499999999999 x84 + 18.955 x85 - 1.04499999999999 x86
      + 4.45500000000001 x87 + 8.95500000000001 x88 + 18.955 x89 + 10.955 x90
      - 25.045 x91 - 21.045 x92 - 15.045 x93 + 47.955 x94 - 39.545 x95
      - 49.045 x96 + 12.455 x97 + 1.45500000000001 x98 + 8.95500000000001 x99
      - 9.54499999999999 x100 - 22.545 x101
Subject To
 c1:   x1 - 288 x102 - 379 x103 - 403 x104 - 309 x105 - 375 x106 - 511 x107
       - 421 x108 - 347 x109 - 422 x110 - 323 x111 - 369 x112 - 354 x113
       - 395 x114 - 487 x115 - 453 x116 - 527 x117 - 507 x118 - 451 x119
       - 391 x120 - 456 x121 - 422 x122 - 498 x123 - 383 x124 - 478 x125
       - 484 x126 - 383 x127 - 378 x128 - 362 x129 - 524 x130 - 426 x131
       - 445 x132 - 360 x133 - 323 x134 - 423 x135 - 474 x136 - 401 x137
       - 496 x138 - 386 x139 - 371 x140 - 327 x141 - 471 x142 - 456 x143
       - 400 x144 - 494 x145 - 529 x146 - 360 x147 - 399 x148 - 381 x149
       - 404 x150 - 358 x151 - 434 x152 - 331 x153 - 374 x154 - 445 x155
       - 287 x156 - 412 x157 - 376 x158 - 386 x159 - 390 x160 - 355 x161
       - 421 x162 - 384 x163 - 400 x164 - 408 x165 - 400 x166 - 469 x167
       - 387 x168 - 401 x169 - 347 x170 - 319 x171 - 440 x172 - 446 x173
       - 342 x174 - 405 x175 - 362 x176 - 380 x177 - 431 x178 - 340 x179
       - 414 x180 - 449 x181 - 417 x182 - 416 x183 - 425 x184 - 370 x185
       - 410 x186 - 399 x187 - 390 x188 - 370 x189 - 386 x190 - 458 x191
       - 450 x192 - 438 x193 - 312 x194 - 487 x195 - 506 x196 - 383 x197
       - 405 x198 - 390 x199 - 427 x200 - 453 x201 - 23 x202 - 23 x203
       - 48 x204 - 24 x205 - 23 x206 - 25 x207 - 58 x208 - 39 x209 - 24 x210
       - 23 x211 - 23 x212 - 28 x213 - 28 x214 - 55 x215 - 23 x216 - 45 x217
       - 20 x218 - 32 x219 - 16 x220 - 14 x221 - 28 x222 - 22 x223 - 22 x224
       - 23 x225 - 41 x226 - 24 x227 - 34 x228 - 17 x229 - 30 x230 - 20 x231
       - 41 x232 - 26 x233 - 26 x234 - 21 x235 - 24 x236 - 33 x237 - 43 x238
       - 26 x239 - 23 x240 - 19 x241 - 32 x242 - 33 x243 - 24 x244 - 33 x245
       - 45 x246 - 15 x247 - 43 x248 - 18 x249 - 13 x250 - 13 x251 - 22 x252
       - 10 x253 - 22 x254 - 20 x255 - 34 x256 - 29 x257 - 17 x258 - 21 x259
       - 31 x260 - 31 x261 - 26 x262 - 15 x263 - 37 x264 - 28 x265 - 43 x266
       - 36 x267 - 31 x268 - 28 x269 - 15 x270 - 25 x271 - 19 x272 - 31 x273
       - 25 x274 - 21 x275 - 38 x276 - 27 x277 - 27 x278 - 22 x279 - 33 x280
       - 23 x281 - 36 x282 - 37 x283 - 24 x284 - 29 x285 - 26 x286 - 40 x287
       - 18 x288 - 23 x289 - 24 x290 - 40 x291 - 24 x292 - 24 x293 - 14 x294
       - 28 x295 - 40 x296 - 45 x297 - 23 x298 - 34 x299 - 14 x300 - 29 x301
       - 19 x302 - 15 x303 - 24 x304 - 12 x305 - 16 x306 - 22 x307 - 40 x308
       - 19 x309 - 23 x310 - 16 x311 - 14 x312 - 21 x313 - 17 x314 - 32 x315
       - 13 x316 - 34 x317 - 25 x318 - 14 x319 - 14 x320 - 17 x321 - 15 x322
       - 26 x323 - 12 x324 - 13 x325 - 34 x326 - 22 x327 - 23 x328 - 13 x329
       - 20 x330 - 19 x331 - 27 x332 - 15 x333 - 17 x334 - 21 x335 - 20 x336
       - 27 x337 - 38 x338 - 13 x339 - 18 x340 - 12 x341 - 30 x342 - 23 x343
       - 30 x344 - 17 x345 - 24 x346 - 15 x347 - 25 x348 - 15 x349 - 12 x350
       - 10 x351 - 16 x352 - 9 x353 - 17 x354 - 16 x355 - 20 x356 - 20 x357
       - 14 x358 - 13 x359 - 25 x360 - 20 x361 - 22 x362 - 19 x363 - 19 x364
       - 13 x365 - 31 x366 - 25 x367 - 36 x368 - 32 x369 - 16 x370 - 25 x371
       - 19 x372 - 24 x373 - 17 x374 - 16 x375 - 26 x376 - 13 x377 - 20 x378
       - 13 x379 - 14 x380 - 20 x381 - 34 x382 - 34 x383 - 15 x384 - 21 x385
       - 20 x386 - 24 x387 - 12 x388 - 13 x389 - 31 x390 - 33 x391 - 19 x392
       - 13 x393 - 7 x394 - 28 x395 - 22 x396 - 21 x397 - 17 x398 - 17 x399
       - 14 x400 - 26 x401 - 11 x402 - 10 x403 - 17 x404 - 8 x405 - 9 x406
       - 15 x407 - 18 x408 - 8 x409 - 11 x410 - 5 x411 - 11 x412 - 10 x413
       - 10 x414 - 18 x415 - 10 x416 - 15 x417 - 8 x418 - 9 x419 - 9 x420
       - 5 x421 - 11 x422 - 10 x423 - 7 x424 - 12 x425 - 20 x426 - 7 x427
       - 17 x428 - 8 x429 - 8 x430 - 7 x431 - 20 x432 - 6 x433 - 7 x434
       - 11 x435 - 12 x436 - 9 x437 - 18 x438 - 7 x439 - 9 x440 - 10 x441
       - 19 x442 - 10 x443 - 9 x444 - 12 x445 - 20 x446 - 8 x447 - 11 x448
       - 11 x449 - 8 x450 - 6 x451 - 13 x452 - 6 x453 - 9 x454 - 10 x455
       - 10 x456 - 6 x457 - 10 x458 - 8 x459 - 12 x460 - 7 x461 - 9 x462
       - 10 x463 - 17 x464 - 10 x465 - 11 x466 - 17 x467 - 16 x468 - 11 x469
       - 7 x470 - 7 x471 - 10 x472 - 12 x473 - 6 x474 - 7 x475 - 10 x476
       - 10 x477 - 7 x478 - 9 x479 - 10 x480 - 7 x481 - 16 x482 - 10 x483
       - 7 x484 - 15 x485 - 13 x486 - 15 x487 - 7 x488 - 9 x489 - 9 x490
       - 12 x491 - 10 x492 - 5 x493 - 5 x494 - 17 x495 - 13 x496 - 16 x497
       - 8 x498 - 11 x499 - 8 x500 - 11 x501 - 144 x502 - 189.5 x503
       - 201.5 x504 - 154.5 x505 - 187.5 x506 - 255.5 x507 - 210.5 x508
       - 173.5 x509 - 211 x510 - 161.5 x511 - 184.5 x512 - 177 x513
       - 197.5 x514 - 243.5 x515 - 226.5 x516 - 263.5 x517 - 253.5 x518
       - 225.5 x519 - 195.5 x520 - 228 x521 - 211 x522 - 249 x523 - 191.5 x524
       - 239 x525 - 242 x526 - 191.5 x527 - 189 x528 - 181 x529 - 262 x530
       - 213 x531 - 222.5 x532 - 180 x533 - 161.5 x534 - 211.5 x535 - 237 x536
       - 200.5 x537 - 248 x538 - 193 x539 - 185.5 x540 - 163.5 x541
       - 235.5 x542 - 228 x543 - 200 x544 - 247 x545 - 264.5 x546 - 180 x547
       - 199.5 x548 - 190.5 x549 - 202 x550 - 179 x551 - 217 x552 - 165.5 x553
       - 187 x554 - 222.5 x555 - 143.5 x556 - 206 x557 - 188 x558 - 193 x559
       - 195 x560 - 177.5 x561 - 210.5 x562 - 192 x563 - 200 x564 - 204 x565
       - 200 x566 - 234.5 x567 - 193.5 x568 - 200.5 x569 - 173.5 x570
       - 159.5 x571 - 220 x572 - 223 x573 - 171 x574 - 202.5 x575 - 181 x576
       - 190 x577 - 215.5 x578 - 170 x579 - 207 x580 - 224.5 x581 - 208.5 x582
       - 208 x583 - 212.5 x584 - 185 x585 - 205 x586 - 199.5 x587 - 195 x588
       - 185 x589 - 193 x590 - 229 x591 - 225 x592 - 219 x593 - 156 x594
       - 243.5 x595 - 253 x596 - 191.5 x597 - 202.5 x598 - 195 x599
       - 213.5 x600 - 226.5 x601 - x602  = -1261
 c2:   x502 + x503 + x504 + x505 + x506 + x507 + x508 + x509 + x510 + x511
       + x512 + x513 + x514 + x515 + x516 + x517 + x518 + x519 + x520 + x521
       + x522 + x523 + x524 + x525 + x526 + x527 + x528 + x529 + x530 + x531
       + x532 + x533 + x534 + x535 + x536 + x537 + x538 + x539 + x540 + x541
       + x542 + x543 + x544 + x545 + x546 + x547 + x548 + x549 + x550 + x551
       + x552 + x553 + x554 + x555 + x556 + x557 + x558 + x559 + x560 + x561
       + x562 + x563 + x564 + x565 + x566 + x567 + x568 + x569 + x570 + x571
       + x572 + x573 + x574 + x575 + x576 + x577 + x578 + x579 + x580 + x581
       + x582 + x583 + x584 + x585 + x586 + x587 + x588 + x589 + x590 + x591
       + x592 + x593 + x594 + x595 + x596 + x597 + x598 + x599 + x600 + x601
       <= 5
 c3:   x202 + x203 + x204 + x205 + x206 + x207 + x208 + x209 + x210 + x211
       + x212 + x213 + x214 + x215 + x216 + x217 + x218 + x219 + x220 + x221
       + x222 + x223 + x224 + x225 + x226 + x227 + x228 + x229 + x230 + x231
       + x232 + x233 + x234 + x235 + x236 + x237 + x238 + x239 + x240 + x241
       + x242 + x243 + x244 + x245 + x246 + x247 + x248 + x249 + x250 + x251
       + x252 + x253 + x254 + x255 + x256 + x257 + x258 + x259 + x260 + x261
       + x262 + x263 + x264 + x265 + x266 + x267 + x268 + x269 + x270 + x271
       + x272 + x273 + x274 + x275 + x276 + x277 + x278 + x279 + x280 + x281
       + x282 + x283 + x284 + x285 + x286 + x287 + x288 + x289 + x290 + x291
       + x292 + x293 + x294 + x295 + x296 + x297 + x298 + x299 + x300 + x301
       <= 16
 c4:   x302 + x303 + x304 + x305 + x306 + x307 + x308 + x309 + x310 + x311
       + x312 + x313 + x314 + x315 + x316 + x317 + x318 + x319 + x320 + x321
       + x322 + x323 + x324 + x325 + x326 + x327 + x328 + x329 + x330 + x331
       + x332 + x333 + x334 + x335 + x336 + x337 + x338 + x339 + x340 + x341
       + x342 + x343 + x344 + x345 + x346 + x347 + x348 + x349 + x350 + x351
       + x352 + x353 + x354 + x355 + x356 + x357 + x358 + x359 + x360 + x361
       + x362 + x363 + x364 + x365 + x366 + x367 + x368 + x369 + x370 + x371
       + x372 + x373 + x374 + x375 + x376 + x377 + x378 + x379 + x380 + x381
       + x382 + x383 + x384 + x385 + x386 + x387 + x388 + x389 + x390 + x391
       + x392 + x393 + x394 + x395 + x396 + x397 + x398 + x399 + x400 + x401
       <= 1
 c5:   x402 + x403 + x404 + x405 + x406 + x407 + x408 + x409 + x410 + x411
       + x412 + x413 + x414 + x415 + x416 + x417 + x418 + x419 + x420 + x421
       + x422 + x423 + x424 + x425 + x426 + x427 + x428 + x429 + x430 + x431
       + x432 + x433 + x434 + x435 + x436 + x437 + x438 + x439 + x440 + x441
       + x442 + x443 + x444 + x445 + x446 + x447 + x448 + x449 + x450 + x451
       + x452 + x453 + x454 + x455 + x456 + x457 + x458 + x459 + x460 + x461
       + x462 + x463 + x464 + x465 + x466 + x467 + x468 + x469 + x470 + x471
       + x472 + x473 + x474 + x475 + x476 + x477 + x478 + x479 + x480 + x481
       + x482 + x483 + x484 + x485 + x486 + x487 + x488 + x489 + x490 + x491
       + x492 + x493 + x494 + x495 + x496 + x497 + x498 + x499 + x500 + x501
       <= 14
 c6:   14 x2 - 11.2 x202 - 8.4 x302 - 4.2 x402 - 20 x502  = 80
 c7:   12 x3 - 9.6 x203 - 7.2 x303 - 3.6 x403 - 86 x503  = 14
 c8:   15 x4 - 12 x204 - 9 x304 - 4.5 x404 - 50 x504  = 50
 c9:   12 x5 - 9.6 x205 - 7.2 x305 - 3.6 x405 - 25 x505  = 75
 c10:  8 x6 - 6.4 x206 - 4.8 x306 - 2.4 x406 - 64 x506  = 36
 c11:  11 x7 - 8.8 x207 - 6.6 x307 - 3.3 x407 - 47 x507  = 53
 c12:  18 x8 - 14.4 x208 - 10.8 x308 - 5.4 x408 - 20 x508  = 80
 c13:  15 x9 - 12 x209 - 9 x309 - 4.5 x409 - 49 x509  = 51
 c14:  10 x10 - 2 x110 - 8 x210 - 6 x310 - 3 x410 - 102 x510  = -2
 c15:  9 x11 - 7.2 x211 - 5.4 x311 - 2.7 x411 - 31 x511  = 69
 c16:  10 x12 - 8 x212 - 6 x312 - 3 x412 - 58 x512  = 42
 c17:  10 x13 - 6 x113 - 8 x213 - 6 x313 - 3 x413 - 106 x513  = -6
 c18:  12 x14 - 2 x114 - 9.6 x214 - 7.2 x314 - 3.6 x414 - 102 x514  = -2
 c19:  16 x15 - 12.8 x215 - 9.6 x315 - 4.8 x415 - 74 x515  = 26
 c20:  9 x16 - 7.2 x216 - 5.4 x316 - 2.7 x416 - 78 x516  = 22
 c21:  11 x17 - 8.8 x217 - 6.6 x317 - 3.3 x417 - 27 x517  = 73
 c22:  9 x18 - 7.2 x218 - 5.4 x318 - 2.7 x418 - 99 x518  = 1
 c23:  10 x19 - 8 x219 - 6 x319 - 3 x419 - 15 x519  = 85
 c24:  9 x20 - 7.2 x220 - 5.4 x320 - 2.7 x420 - 39 x520  = 61
 c25:  7 x21 - 5.6 x221 - 4.2 x321 - 2.1 x421 - 82 x521  = 18
 c26:  11 x22 - 8.8 x222 - 6.6 x322 - 3.3 x422 - 16 x522  = 84
 c27:  10 x23 - 8 x223 - 6 x323 - 3 x423 - 59 x523  = 41
 c28:  10 x24 - 8 x224 - 6 x324 - 3 x424 - 60 x524  = 40
 c29:  9 x25 - 7.2 x225 - 5.4 x325 - 2.7 x425 - 51 x525  = 49
 c30:  14 x26 - 11.2 x226 - 8.4 x326 - 4.2 x426 - 16 x526  = 84
 c31:  12 x27 - 9.6 x227 - 7.2 x327 - 3.6 x427 - 27 x527  = 73
 c32:  18 x28 - 21 x128 - 14.4 x228 - 10.8 x328 - 5.4 x428 - 121 x528  = -21
 c33:  8 x29 - 6.4 x229 - 4.8 x329 - 2.4 x429 - 57 x529  = 43
 c34:  8 x30 - 6.4 x230 - 4.8 x330 - 2.4 x430 - 98 x530  = 2
 c35:  9 x31 - 7.2 x231 - 5.4 x331 - 2.7 x431 - 68 x531  = 32
 c36:  16 x32 - 12.8 x232 - 9.6 x332 - 4.8 x432 - 54 x532  = 46
 c37:  11 x33 - 8.8 x233 - 6.6 x333 - 3.3 x433 - 61 x533  = 39
 c38:  11 x34 - 8.8 x234 - 6.6 x334 - 3.3 x434 - 65 x534  = 35
 c39:  9 x35 - 7.2 x235 - 5.4 x335 - 2.7 x435 - 26 x535  = 74
 c40:  11 x36 - 8.8 x236 - 6.6 x336 - 3.3 x436 - 54 x536  = 46
 c41:  12 x37 - 9.6 x237 - 7.2 x337 - 3.6 x437 - 20 x537  = 80
 c42:  15 x38 - 12 x238 - 9 x338 - 4.5 x438 - 12 x538  = 88
 c43:  10 x39 - 8 x239 - 6 x339 - 3 x439 - 85 x539  = 15
 c44:  10 x40 - 8 x240 - 6 x340 - 3 x440 - 10 x540  = 90
 c45:  11 x41 - 8.8 x241 - 6.6 x341 - 3.3 x441 - 36 x541  = 64
 c46:  15 x42 - 12 x242 - 9 x342 - 4.5 x442 - 25 x542  = 75
 c47:  12 x43 - 9.6 x243 - 7.2 x343 - 3.6 x443 - 32 x543  = 68
 c48:  14 x44 - 11.2 x244 - 8.4 x344 - 4.2 x444 - 68 x544  = 32
 c49:  10 x45 - 8 x245 - 6 x345 - 3 x445 - 26 x545  = 74
 c50:  13 x46 - 10.4 x246 - 7.8 x346 - 3.9 x446 - 94 x546  = 6
 c51:  8 x47 - 6.4 x247 - 4.8 x347 - 2.4 x447 - 49 x547  = 51
 c52:  16 x48 - 12.8 x248 - 9.6 x348 - 4.8 x448 - 91 x548  = 9
 c53:  10 x49 - 8 x249 - 6 x349 - 3 x449 - 46 x549  = 54
 c54:  7 x50 - 5.6 x250 - 4.2 x350 - 2.1 x450 - 11 x550  = 89
 c55:  7 x51 - 5.6 x251 - 4.2 x351 - 2.1 x451 - 58 x551  = 42
 c56:  11 x52 - 8.8 x252 - 6.6 x352 - 3.3 x452 - 28 x552  = 72
 c57:  7 x53 - 5.6 x253 - 4.2 x353 - 2.1 x453 - 50 x553  = 50
 c58:  10 x54 - 8 x254 - 6 x354 - 3 x454 - 24 x554  = 76
 c59:  8 x55 - 6.4 x255 - 4.8 x355 - 2.4 x455 - 75 x555  = 25
 c60:  18 x56 - 14.4 x256 - 10.8 x356 - 5.4 x456 - 76 x556  = 24
 c61:  10 x57 - 8 x257 - 6 x357 - 3 x457 - 85 x557  = 15
 c62:  11 x58 - 8.8 x258 - 6.6 x358 - 3.3 x458 - 61 x558  = 39
 c63:  11 x59 - 8.8 x259 - 6.6 x359 - 3.3 x459 - 44 x559  = 56
 c64:  12 x60 - 9.6 x260 - 7.2 x360 - 3.6 x460 - 71 x560  = 29
 c65:  11 x61 - 8.8 x261 - 6.6 x361 - 3.3 x461 - 17 x561  = 83
 c66:  10 x62 - 8 x262 - 6 x362 - 3 x462 - 67 x562  = 33
 c67:  10 x63 - 8 x263 - 6 x363 - 3 x463 - 14 x563  = 86
 c68:  15 x64 - 12 x264 - 9 x364 - 4.5 x464 - 25 x564  = 75
 c69:  10 x65 - 8 x265 - 6 x365 - 3 x465 - 50 x565  = 50
 c70:  14 x66 - 11.2 x266 - 8.4 x366 - 4.2 x466 - 65 x566  = 35
 c71:  12 x67 - 9.6 x267 - 7.2 x367 - 3.6 x467 - 98 x567  = 2
 c72:  16 x68 - 12.8 x268 - 9.6 x368 - 4.8 x468 - 37 x568  = 63
 c73:  14 x69 - 5 x169 - 11.2 x269 - 8.4 x369 - 4.2 x469 - 105 x569  = -5
 c74:  9 x70 - 7.2 x270 - 5.4 x370 - 2.7 x470 - 30 x570  = 70
 c75:  14 x71 - 11.2 x271 - 8.4 x371 - 4.2 x471 - 82 x571  = 18
 c76:  8 x72 - 6.4 x272 - 4.8 x372 - 2.4 x472 - 91 x572  = 9
 c77:  10 x73 - 8 x273 - 6 x373 - 3 x473 - 21 x573  = 79
 c78:  11 x74 - 8.8 x274 - 6.6 x374 - 3.3 x474 - 98 x574  = 2
 c79:  9 x75 - 7.2 x275 - 5.4 x375 - 2.7 x475 - 33 x575  = 67
 c80:  13 x76 - 10.4 x276 - 7.8 x376 - 3.9 x476 - 69 x576  = 31
 c81:  9 x77 - 7.2 x277 - 5.4 x377 - 2.7 x477 - 55 x577  = 45
 c82:  9 x78 - 7.2 x278 - 5.4 x378 - 2.7 x478 - 85 x578  = 15
 c83:  10 x79 - 8 x279 - 6 x379 - 3 x479 - 59 x579  = 41
 c84:  10 x80 - x180 - 8 x280 - 6 x380 - 3 x480 - 101 x580  = -1
 c85:  9 x81 - 7.2 x281 - 5.4 x381 - 2.7 x481 - 40 x581  = 60
 c86:  14 x82 - 11.2 x282 - 8.4 x382 - 4.2 x482 - 30 x582  = 70
 c87:  15 x83 - 12 x283 - 9 x383 - 4.5 x483 - 60 x583  = 40
 c88:  10 x84 - 8 x284 - 6 x384 - 3 x484 - 19 x584  = 81
 c89:  14 x85 - 11.2 x285 - 8.4 x385 - 4.2 x485 - 93 x585  = 7
 c90:  11 x86 - 8.8 x286 - 6.6 x386 - 3.3 x486 - 36 x586  = 64
 c91:  14 x87 - 11.2 x287 - 8.4 x387 - 4.2 x487 - 49 x587  = 51
 c92:  9 x88 - 7.2 x288 - 5.4 x388 - 2.7 x488 - 70 x588  = 30
 c93:  8 x89 - 6.4 x289 - 4.8 x389 - 2.4 x489 - 69 x589  = 31
 c94:  14 x90 - 11.2 x290 - 8.4 x390 - 4.2 x490 - 65 x590  = 35
 c95:  16 x91 - 12.8 x291 - 9.6 x391 - 4.8 x491 - 52 x591  = 48
 c96:  12 x92 - 9.6 x292 - 7.2 x392 - 3.6 x492 - 69 x592  = 31
 c97:  8 x93 - 6.4 x293 - 4.8 x393 - 2.4 x493 - 12 x593  = 88
 c98:  6 x94 - 4.8 x294 - 3.6 x394 - 1.8 x494 - 21 x594  = 79
 c99:  12 x95 - 9.6 x295 - 7.2 x395 - 3.6 x495 - 47 x595  = 53
 c100: 12 x96 - 9.6 x296 - 7.2 x396 - 3.6 x496 - 25 x596  = 75
 c101: 15 x97 - 3 x197 - 12 x297 - 9 x397 - 4.5 x497 - 103 x597  = -3
 c102: 8 x98 - 6.4 x298 - 4.8 x398 - 2.4 x498 - 75 x598  = 25
 c103: 11 x99 - 8.8 x299 - 6.6 x399 - 3.3 x499 - 89 x599  = 11
 c104: 7 x100 - 5.6 x300 - 4.2 x400 - 2.1 x500 - 98 x600  = 2
 c105: 10 x101 - 8 x301 - 6 x401 - 3 x501 - 10 x601  = 90
 c106: x102 + x202 + x302 + x402 + x502 <= 1
 c107: x103 + x203 + x303 + x403 + x503 <= 1
 c108: x104 + x204 + x304 + x404 + x504 <= 1
 c109: x105 + x205 + x305 + x405 + x505 <= 1
 c110: x106 + x206 + x306 + x406 + x506 <= 1
 c111: x107 + x207 + x307 + x407 + x507 <= 1
 c112: x108 + x208 + x308 + x408 + x508 <= 1
 c113: x109 + x209 + x309 + x409 + x509 <= 1
 c114: x110 + x210 + x310 + x410 + x510 <= 1
 c115: x111 + x211 + x311 + x411 + x511 <= 1
 c116: x112 + x212 + x312 + x412 + x512 <= 1
 c117: x113 + x213 + x313 + x413 + x513 <= 1
 c118: x114 + x214 + x314 + x414 + x514 <= 1
 c119: x115 + x215 + x315 + x415 + x515 <= 1
 c120: x116 + x216 + x316 + x416 + x516 <= 1
 c121: x117 + x217 + x317 + x417 + x517 <= 1
 c122: x118 + x218 + x318 + x418 + x518 <= 1
 c123: x119 + x219 + x319 + x419 + x519 <= 1
 c124: x120 + x220 + x320 + x420 + x520 <= 1
 c125: x121 + x221 + x321 + x421 + x521 <= 1
 c126: x122 + x222 + x322 + x422 + x522 <= 1
 c127: x123 + x223 + x323 + x423 + x523 <= 1
 c128: x124 + x224 + x324 + x424 + x524 <= 1
 c129: x125 + x225 + x325 + x425 + x525 <= 1
 c130: x126 + x226 + x326 + x426 + x526 <= 1
 c131: x127 + x227 + x327 + x427 + x527 <= 1
 c132: x128 + x228 + x328 + x428 + x528 <= 1
 c133: x129 + x229 + x329 + x429 + x529 <= 1
 c134: x130 + x230 + x330 + x430 + x530 <= 1
 c135: x131 + x231 + x331 + x431 + x531 <= 1
 c136: x132 + x232 + x332 + x432 + x532 <= 1
 c137: x133 + x233 + x333 + x433 + x533 <= 1
 c138: x134 + x234 + x334 + x434 + x534 <= 1
 c139: x135 + x235 + x335 + x435 + x535 <= 1
 c140: x136 + x236 + x336 + x436 + x536 <= 1
 c141: x137 + x237 + x337 + x437 + x537 <= 1
 c142: x138 + x238 + x338 + x438 + x538 <= 1
 c143: x139 + x239 + x339 + x439 + x539 <= 1
 c144: x140 + x240 + x340 + x440 + x540 <= 1
 c145: x141 + x241 + x341 + x441 + x541 <= 1
 c146: x142 + x242 + x342 + x442 + x542 <= 1
 c147: x143 + x243 + x343 + x443 + x543 <= 1
 c148: x144 + x244 + x344 + x444 + x544 <= 1
 c149: x145 + x245 + x345 + x445 + x545 <= 1
 c150: x146 + x246 + x346 + x446 + x546 <= 1
 c151: x147 + x247 + x347 + x447 + x547 <= 1
 c152: x148 + x248 + x348 + x448 + x548 <= 1
 c153: x149 + x249 + x349 + x449 + x549 <= 1
 c154: x150 + x250 + x350 + x450 + x550 <= 1
 c155: x151 + x251 + x351 + x451 + x551 <= 1
 c156: x152 + x252 + x352 + x452 + x552 <= 1
 c157: x153 + x253 + x353 + x453 + x553 <= 1
 c158: x154 + x254 + x354 + x454 + x554 <= 1
 c159: x155 + x255 + x355 + x455 + x555 <= 1
 c160: x156 + x256 + x356 + x456 + x556 <= 1
 c161: x157 + x257 + x357 + x457 + x557 <= 1
 c162: x158 + x258 + x358 + x458 + x558 <= 1
 c163: x159 + x259 + x359 + x459 + x559 <= 1
 c164: x160 + x260 + x360 + x460 + x560 <= 1
 c165: x161 + x261 + x361 + x461 + x561 <= 1
 c166: x162 + x262 + x362 + x462 + x562 <= 1
 c167: x163 + x263 + x363 + x463 + x563 <= 1
 c168: x164 + x264 + x364 + x464 + x564 <= 1
 c169: x165 + x265 + x365 + x465 + x565 <= 1
 c170: x166 + x266 + x366 + x466 + x566 <= 1
 c171: x167 + x267 + x367 + x467 + x567 <= 1
 c172: x168 + x268 + x368 + x468 + x568 <= 1
 c173: x169 + x269 + x369 + x469 + x569 <= 1
 c174: x170 + x270 + x370 + x470 + x570 <= 1
 c175: x171 + x271 + x371 + x471 + x571 <= 1
 c176: x172 + x272 + x372 + x472 + x572 <= 1
 c177: x173 + x273 + x373 + x473 + x573 <= 1
 c178: x174 + x274 + x374 + x474 + x574 <= 1
 c179: x175 + x275 + x375 + x475 + x575 <= 1
 c180: x176 + x276 + x376 + x476 + x576 <= 1
 c181: x177 + x277 + x377 + x477 + x577 <= 1
 c182: x178 + x278 + x378 + x478 + x578 <= 1
 c183: x179 + x279 + x379 + x479 + x579 <= 1
 c184: x180 + x280 + x380 + x480 + x580 <= 1
 c185: x181 + x281 + x381 + x481 + x581 <= 1
 c186: x182 + x282 + x382 + x482 + x582 <= 1
 c187: x183 + x283 + x383 + x483 + x583 <= 1
 c188: x184 + x284 + x384 + x484 + x584 <= 1
 c189: x185 + x285 + x385 + x485 + x585 <= 1
 c190: x186 + x286 + x386 + x486 + x586 <= 1
 c191: x187 + x287 + x387 + x487 + x587 <= 1
 c192: x188 + x288 + x388 + x488 + x588 <= 1
 c193: x189 + x289 + x389 + x489 + x589 <= 1
 c194: x190 + x290 + x390 + x490 + x590 <= 1
 c195: x191 + x291 + x391 + x491 + x591 <= 1
 c196: x192 + x292 + x392 + x492 + x592 <= 1
 c197: x193 + x293 + x393 + x493 + x593 <= 1
 c198: x194 + x294 + x394 + x494 + x594 <= 1
 c199: x195 + x295 + x395 + x495 + x595 <= 1
 c200: x196 + x296 + x396 + x496 + x596 <= 1
 c201: x197 + x297 + x397 + x497 + x597 <= 1
 c202: x198 + x298 + x398 + x498 + x598 <= 1
 c203: x199 + x299 + x399 + x499 + x599 <= 1
 c204: x200 + x300 + x400 + x500 + x600 <= 1
 c205: x201 + x301 + x401 + x501 + x601 <= 1
Bounds
 0 <= x102 <= 1
 0 <= x103 <= 1
 0 <= x104 <= 1
 0 <= x105 <= 1
 0 <= x106 <= 1
 0 <= x107 <= 1
 0 <= x108 <= 1
 0 <= x109 <= 1
 0 <= x110 <= 1
 0 <= x111 <= 1
 0 <= x112 <= 1
 0 <= x113 <= 1
 0 <= x114 <= 1
 0 <= x115 <= 1
 0 <= x116 <= 1
 0 <= x117 <= 1
 0 <= x118 <= 1
 0 <= x119 <= 1
 0 <= x120 <= 1
 0 <= x121 <= 1
 0 <= x122 <= 1
 0 <= x123 <= 1
 0 <= x124 <= 1
 0 <= x125 <= 1
 0 <= x126 <= 1
 0 <= x127 <= 1
 0 <= x128 <= 1
 0 <= x129 <= 1
 0 <= x130 <= 1
 0 <= x131 <= 1
 0 <= x132 <= 1
 0 <= x133 <= 1
 0 <= x134 <= 1
 0 <= x135 <= 1
 0 <= x136 <= 1
 0 <= x137 <= 1
 0 <= x138 <= 1
 0 <= x139 <= 1
 0 <= x140 <= 1
 0 <= x141 <= 1
 0 <= x142 <= 1
 0 <= x143 <= 1
 0 <= x144 <= 1
 0 <= x145 <= 1
 0 <= x146 <= 1
 0 <= x147 <= 1
 0 <= x148 <= 1
 0 <= x149 <= 1
 0 <= x150 <= 1
 0 <= x151 <= 1
 0 <= x152 <= 1
 0 <= x153 <= 1
 0 <= x154 <= 1
 0 <= x155 <= 1
 0 <= x156 <= 1
 0 <= x157 <= 1
 0 <= x158 <= 1
 0 <= x159 <= 1
 0 <= x160 <= 1
 0 <= x161 <= 1
 0 <= x162 <= 1
 0 <= x163 <= 1
 0 <= x164 <= 1
 0 <= x165 <= 1
 0 <= x166 <= 1
 0 <= x167 <= 1
 0 <= x168 <= 1
 0 <= x169 <= 1
 0 <= x170 <= 1
 0 <= x171 <= 1
 0 <= x172 <= 1
 0 <= x173 <= 1
 0 <= x174 <= 1
 0 <= x175 <= 1
 0 <= x176 <= 1
 0 <= x177 <= 1
 0 <= x178 <= 1
 0 <= x179 <= 1
 0 <= x180 <= 1
 0 <= x181 <= 1
 0 <= x182 <= 1
 0 <= x183 <= 1
 0 <= x184 <= 1
 0 <= x185 <= 1
 0 <= x186 <= 1
 0 <= x187 <= 1
 0 <= x188 <= 1
 0 <= x189 <= 1
 0 <= x190 <= 1
 0 <= x191 <= 1
 0 <= x192 <= 1
 0 <= x193 <= 1
 0 <= x194 <= 1
 0 <= x195 <= 1
 0 <= x196 <= 1
 0 <= x197 <= 1
 0 <= x198 <= 1
 0 <= x199 <= 1
 0 <= x200 <= 1
 0 <= x201 <= 1
 0 <= x202 <= 1
 0 <= x203 <= 1
 0 <= x204 <= 1
 0 <= x205 <= 1
 0 <= x206 <= 1
 0 <= x207 <= 1
 0 <= x208 <= 1
 0 <= x209 <= 1
 0 <= x210 <= 1
 0 <= x211 <= 1
 0 <= x212 <= 1
 0 <= x213 <= 1
 0 <= x214 <= 1
 0 <= x215 <= 1
 0 <= x216 <= 1
 0 <= x217 <= 1
 0 <= x218 <= 1
 0 <= x219 <= 1
 0 <= x220 <= 1
 0 <= x221 <= 1
 0 <= x222 <= 1
 0 <= x223 <= 1
 0 <= x224 <= 1
 0 <= x225 <= 1
 0 <= x226 <= 1
 0 <= x227 <= 1
 0 <= x228 <= 1
 0 <= x229 <= 1
 0 <= x230 <= 1
 0 <= x231 <= 1
 0 <= x232 <= 1
 0 <= x233 <= 1
 0 <= x234 <= 1
 0 <= x235 <= 1
 0 <= x236 <= 1
 0 <= x237 <= 1
 0 <= x238 <= 1
 0 <= x239 <= 1
 0 <= x240 <= 1
 0 <= x241 <= 1
 0 <= x242 <= 1
 0 <= x243 <= 1
 0 <= x244 <= 1
 0 <= x245 <= 1
 0 <= x246 <= 1
 0 <= x247 <= 1
 0 <= x248 <= 1
 0 <= x249 <= 1
 0 <= x250 <= 1
 0 <= x251 <= 1
 0 <= x252 <= 1
 0 <= x253 <= 1
 0 <= x254 <= 1
 0 <= x255 <= 1
 0 <= x256 <= 1
 0 <= x257 <= 1
 0 <= x258 <= 1
 0 <= x259 <= 1
 0 <= x260 <= 1
 0 <= x261 <= 1
 0 <= x262 <= 1
 0 <= x263 <= 1
 0 <= x264 <= 1
 0 <= x265 <= 1
 0 <= x266 <= 1
 0 <= x267 <= 1
 0 <= x268 <= 1
 0 <= x269 <= 1
 0 <= x270 <= 1
 0 <= x271 <= 1
 0 <= x272 <= 1
 0 <= x273 <= 1
 0 <= x274 <= 1
 0 <= x275 <= 1
 0 <= x276 <= 1
 0 <= x277 <= 1
 0 <= x278 <= 1
 0 <= x279 <= 1
 0 <= x280 <= 1
 0 <= x281 <= 1
 0 <= x282 <= 1
 0 <= x283 <= 1
 0 <= x284 <= 1
 0 <= x285 <= 1
 0 <= x286 <= 1
 0 <= x287 <= 1
 0 <= x288 <= 1
 0 <= x289 <= 1
 0 <= x290 <= 1
 0 <= x291 <= 1
 0 <= x292 <= 1
 0 <= x293 <= 1
 0 <= x294 <= 1
 0 <= x295 <= 1
 0 <= x296 <= 1
 0 <= x297 <= 1
 0 <= x298 <= 1
 0 <= x299 <= 1
 0 <= x300 <= 1
 0 <= x301 <= 1
 0 <= x302 <= 1
 0 <= x303 <= 1
 0 <= x304 <= 1
 0 <= x305 <= 1
 0 <= x306 <= 1
 0 <= x307 <= 1
 0 <= x308 <= 1
 0 <= x309 <= 1
 0 <= x310 <= 1
 0 <= x311 <= 1
 0 <= x312 <= 1
 0 <= x313 <= 1
 0 <= x314 <= 1
 0 <= x315 <= 1
 0 <= x316 <= 1
 0 <= x317 <= 1
 0 <= x318 <= 1
 0 <= x319 <= 1
 0 <= x320 <= 1
 0 <= x321 <= 1
 0 <= x322 <= 1
 0 <= x323 <= 1
 0 <= x324 <= 1
 0 <= x325 <= 1
 0 <= x326 <= 1
 0 <= x327 <= 1
 0 <= x328 <= 1
 0 <= x329 <= 1
 0 <= x330 <= 1
 0 <= x331 <= 1
 0 <= x332 <= 1
 0 <= x333 <= 1
 0 <= x334 <= 1
 0 <= x335 <= 1
 0 <= x336 <= 1
 0 <= x337 <= 1
 0 <= x338 <= 1
 0 <= x339 <= 1
 0 <= x340 <= 1
 0 <= x341 <= 1
 0 <= x342 <= 1
 0 <= x343 <= 1
 0 <= x344 <= 1
 0 <= x345 <= 1
 0 <= x346 <= 1
 0 <= x347 <= 1
 0 <= x348 <= 1
 0 <= x349 <= 1
 0 <= x350 <= 1
 0 <= x351 <= 1
 0 <= x352 <= 1
 0 <= x353 <= 1
 0 <= x354 <= 1
 0 <= x355 <= 1
 0 <= x356 <= 1
 0 <= x357 <= 1
 0 <= x358 <= 1
 0 <= x359 <= 1
 0 <= x360 <= 1
 0 <= x361 <= 1
 0 <= x362 <= 1
 0 <= x363 <= 1
 0 <= x364 <= 1
 0 <= x365 <= 1
 0 <= x366 <= 1
 0 <= x367 <= 1
 0 <= x368 <= 1
 0 <= x369 <= 1
 0 <= x370 <= 1
 0 <= x371 <= 1
 0 <= x372 <= 1
 0 <= x373 <= 1
 0 <= x374 <= 1
 0 <= x375 <= 1
 0 <= x376 <= 1
 0 <= x377 <= 1
 0 <= x378 <= 1
 0 <= x379 <= 1
 0 <= x380 <= 1
 0 <= x381 <= 1
 0 <= x382 <= 1
 0 <= x383 <= 1
 0 <= x384 <= 1
 0 <= x385 <= 1
 0 <= x386 <= 1
 0 <= x387 <= 1
 0 <= x388 <= 1
 0 <= x389 <= 1
 0 <= x390 <= 1
 0 <= x391 <= 1
 0 <= x392 <= 1
 0 <= x393 <= 1
 0 <= x394 <= 1
 0 <= x395 <= 1
 0 <= x396 <= 1
 0 <= x397 <= 1
 0 <= x398 <= 1
 0 <= x399 <= 1
 0 <= x400 <= 1
 0 <= x401 <= 1
 0 <= x402 <= 1
 0 <= x403 <= 1
 0 <= x404 <= 1
 0 <= x405 <= 1
 0 <= x406 <= 1
 0 <= x407 <= 1
 0 <= x408 <= 1
 0 <= x409 <= 1
 0 <= x410 <= 1
 0 <= x411 <= 1
 0 <= x412 <= 1
 0 <= x413 <= 1
 0 <= x414 <= 1
 0 <= x415 <= 1
 0 <= x416 <= 1
 0 <= x417 <= 1
 0 <= x418 <= 1
 0 <= x419 <= 1
 0 <= x420 <= 1
 0 <= x421 <= 1
 0 <= x422 <= 1
 0 <= x423 <= 1
 0 <= x424 <= 1
 0 <= x425 <= 1
 0 <= x426 <= 1
 0 <= x427 <= 1
 0 <= x428 <= 1
 0 <= x429 <= 1
 0 <= x430 <= 1
 0 <= x431 <= 1
 0 <= x432 <= 1
 0 <= x433 <= 1
 0 <= x434 <= 1
 0 <= x435 <= 1
 0 <= x436 <= 1
 0 <= x437 <= 1
 0 <= x438 <= 1
 0 <= x439 <= 1
 0 <= x440 <= 1
 0 <= x441 <= 1
 0 <= x442 <= 1
 0 <= x443 <= 1
 0 <= x444 <= 1
 0 <= x445 <= 1
 0 <= x446 <= 1
 0 <= x447 <= 1
 0 <= x448 <= 1
 0 <= x449 <= 1
 0 <= x450 <= 1
 0 <= x451 <= 1
 0 <= x452 <= 1
 0 <= x453 <= 1
 0 <= x454 <= 1
 0 <= x455 <= 1
 0 <= x456 <= 1
 0 <= x457 <= 1
 0 <= x458 <= 1
 0 <= x459 <= 1
 0 <= x460 <= 1
 0 <= x461 <= 1
 0 <= x462 <= 1
 0 <= x463 <= 1
 0 <= x464 <= 1
 0 <= x465 <= 1
 0 <= x466 <= 1
 0 <= x467 <= 1
 0 <= x468 <= 1
 0 <= x469 <= 1
 0 <= x470 <= 1
 0 <= x471 <= 1
 0 <= x472 <= 1
 0 <= x473 <= 1
 0 <= x474 <= 1
 0 <= x475 <= 1
 0 <= x476 <= 1
 0 <= x477 <= 1
 0 <= x478 <= 1
 0 <= x479 <= 1
 0 <= x480 <= 1
 0 <= x481 <= 1
 0 <= x482 <= 1
 0 <= x483 <= 1
 0 <= x484 <= 1
 0 <= x485 <= 1
 0 <= x486 <= 1
 0 <= x487 <= 1
 0 <= x488 <= 1
 0 <= x489 <= 1
 0 <= x490 <= 1
 0 <= x491 <= 1
 0 <= x492 <= 1
 0 <= x493 <= 1
 0 <= x494 <= 1
 0 <= x495 <= 1
 0 <= x496 <= 1
 0 <= x497 <= 1
 0 <= x498 <= 1
 0 <= x499 <= 1
 0 <= x500 <= 1
 0 <= x501 <= 1
 0 <= x502 <= 1
 0 <= x503 <= 1
 0 <= x504 <= 1
 0 <= x505 <= 1
 0 <= x506 <= 1
 0 <= x507 <= 1
 0 <= x508 <= 1
 0 <= x509 <= 1
 0 <= x510 <= 1
 0 <= x511 <= 1
 0 <= x512 <= 1
 0 <= x513 <= 1
 0 <= x514 <= 1
 0 <= x515 <= 1
 0 <= x516 <= 1
 0 <= x517 <= 1
 0 <= x518 <= 1
 0 <= x519 <= 1
 0 <= x520 <= 1
 0 <= x521 <= 1
 0 <= x522 <= 1
 0 <= x523 <= 1
 0 <= x524 <= 1
 0 <= x525 <= 1
 0 <= x526 <= 1
 0 <= x527 <= 1
 0 <= x528 <= 1
 0 <= x529 <= 1
 0 <= x530 <= 1
 0 <= x531 <= 1
 0 <= x532 <= 1
 0 <= x533 <= 1
 0 <= x534 <= 1
 0 <= x535 <= 1
 0 <= x536 <= 1
 0 <= x537 <= 1
 0 <= x538 <= 1
 0 <= x539 <= 1
 0 <= x540 <= 1
 0 <= x541 <= 1
 0 <= x542 <= 1
 0 <= x543 <= 1
 0 <= x544 <= 1
 0 <= x545 <= 1
 0 <= x546 <= 1
 0 <= x547 <= 1
 0 <= x548 <= 1
 0 <= x549 <= 1
 0 <= x550 <= 1
 0 <= x551 <= 1
 0 <= x552 <= 1
 0 <= x553 <= 1
 0 <= x554 <= 1
 0 <= x555 <= 1
 0 <= x556 <= 1
 0 <= x557 <= 1
 0 <= x558 <= 1
 0 <= x559 <= 1
 0 <= x560 <= 1
 0 <= x561 <= 1
 0 <= x562 <= 1
 0 <= x563 <= 1
 0 <= x564 <= 1
 0 <= x565 <= 1
 0 <= x566 <= 1
 0 <= x567 <= 1
 0 <= x568 <= 1
 0 <= x569 <= 1
 0 <= x570 <= 1
 0 <= x571 <= 1
 0 <= x572 <= 1
 0 <= x573 <= 1
 0 <= x574 <= 1
 0 <= x575 <= 1
 0 <= x576 <= 1
 0 <= x577 <= 1
 0 <= x578 <= 1
 0 <= x579 <= 1
 0 <= x580 <= 1
 0 <= x581 <= 1
 0 <= x582 <= 1
 0 <= x583 <= 1
 0 <= x584 <= 1
 0 <= x585 <= 1
 0 <= x586 <= 1
 0 <= x587 <= 1
 0 <= x588 <= 1
 0 <= x589 <= 1
 0 <= x590 <= 1
 0 <= x591 <= 1
 0 <= x592 <= 1
 0 <= x593 <= 1
 0 <= x594 <= 1
 0 <= x595 <= 1
 0 <= x596 <= 1
 0 <= x597 <= 1
 0 <= x598 <= 1
 0 <= x599 <= 1
 0 <= x600 <= 1
 0 <= x601 <= 1
Binaries
 x102  x103  x104  x105  x106  x107  x108  x109  x110  x111  x112  x113  x114 
 x115  x116  x117  x118  x119  x120  x121  x122  x123  x124  x125  x126  x127 
 x128  x129  x130  x131  x132  x133  x134  x135  x136  x137  x138  x139  x140 
 x141  x142  x143  x144  x145  x146  x147  x148  x149  x150  x151  x152  x153 
 x154  x155  x156  x157  x158  x159  x160  x161  x162  x163  x164  x165  x166 
 x167  x168  x169  x170  x171  x172  x173  x174  x175  x176  x177  x178  x179 
 x180  x181  x182  x183  x184  x185  x186  x187  x188  x189  x190  x191  x192 
 x193  x194  x195  x196  x197  x198  x199  x200  x201  x202  x203  x204  x205 
 x206  x207  x208  x209  x210  x211  x212  x213  x214  x215  x216  x217  x218 
 x219  x220  x221  x222  x223  x224  x225  x226  x227  x228  x229  x230  x231 
 x232  x233  x234  x235  x236  x237  x238  x239  x240  x241  x242  x243  x244 
 x245  x246  x247  x248  x249  x250  x251  x252  x253  x254  x255  x256  x257 
 x258  x259  x260  x261  x262  x263  x264  x265  x266  x267  x268  x269  x270 
 x271  x272  x273  x274  x275  x276  x277  x278  x279  x280  x281  x282  x283 
 x284  x285  x286  x287  x288  x289  x290  x291  x292  x293  x294  x295  x296 
 x297  x298  x299  x300  x301  x302  x303  x304  x305  x306  x307  x308  x309 
 x310  x311  x312  x313  x314  x315  x316  x317  x318  x319  x320  x321  x322 
 x323  x324  x325  x326  x327  x328  x329  x330  x331  x332  x333  x334  x335 
 x336  x337  x338  x339  x340  x341  x342  x343  x344  x345  x346  x347  x348 
 x349  x350  x351  x352  x353  x354  x355  x356  x357  x358  x359  x360  x361 
 x362  x363  x364  x365  x366  x367  x368  x369  x370  x371  x372  x373  x374 
 x375  x376  x377  x378  x379  x380  x381  x382  x383  x384  x385  x386  x387 
 x388  x389  x390  x391  x392  x393  x394  x395  x396  x397  x398  x399  x400 
 x401  x402  x403  x404  x405  x406  x407  x408  x409  x410  x411  x412  x413 
 x414  x415  x416  x417  x418  x419  x420  x421  x422  x423  x424  x425  x426 
 x427  x428  x429  x430  x431  x432  x433  x434  x435  x436  x437  x438  x439 
 x440  x441  x442  x443  x444  x445  x446  x447  x448  x449  x450  x451  x452 
 x453  x454  x455  x456  x457  x458  x459  x460  x461  x462  x463  x464  x465 
 x466  x467  x468  x469  x470  x471  x472  x473  x474  x475  x476  x477  x478 
 x479  x480  x481  x482  x483  x484  x485  x486  x487  x488  x489  x490  x491 
 x492  x493  x494  x495  x496  x497  x498  x499  x500  x501  x502  x503  x504 
 x505  x506  x507  x508  x509  x510  x511  x512  x513  x514  x515  x516  x517 
 x518  x519  x520  x521  x522  x523  x524  x525  x526  x527  x528  x529  x530 
 x531  x532  x533  x534  x535  x536  x537  x538  x539  x540  x541  x542  x543 
 x544  x545  x546  x547  x548  x549  x550  x551  x552  x553  x554  x555  x556 
 x557  x558  x559  x560  x561  x562  x563  x564  x565  x566  x567  x568  x569 
 x570  x571  x572  x573  x574  x575  x576  x577  x578  x579  x580  x581  x582 
 x583  x584  x585  x586  x587  x588  x589  x590  x591  x592  x593  x594  x595 
 x596  x597  x598  x599  x600  x601 
End
